ACTORES = {Actor1, Actor2, Actor3, Actor4} ;

Escenas = [| 0,1,0,0,0,0,10
           | 0,1,1,1,0,1,20
           | 1,1,1,1,0,1,5
           | 1,0,0,0,1,1,15|]; 
           
Duracion = [2,1,1,1,3,4];

% Ejecución con Gecode

% Orden de las Escenas: [4, 3, 2, 6, 1, 5]
% Costo: 330
% ----------
% ==========
% Finished in 126msec


